100 1178
1 17 -1
1 19 1
1 21 -1
1 23 -1
1 37 -1
1 38 1
1 48 -1
1 52 -1
1 54 1
1 60 1
1 64 -1
1 66 -1
1 71 -1
1 76 1
1 77 1
1 80 1
1 82 1
1 84 1
1 95 -1
2 7 1
2 10 1
2 13 1
2 15 1
2 16 -1
2 26 -1
2 29 -1
2 30 -1
2 35 1
2 41 -1
2 46 1
2 52 1
2 60 -1
2 61 1
2 63 -1
2 66 -1
2 67 -1
2 68 -1
2 73 -1
2 74 1
2 79 1
2 84 1
2 85 -1
2 89 1
2 92 1
2 94 -1
2 95 -1
2 100 -1
3 16 1
3 21 1
3 23 1
3 24 1
3 27 1
3 41 -1
3 42 1
3 45 -1
3 46 1
3 47 -1
3 59 -1
3 63 -1
3 64 -1
3 70 -1
3 75 -1
3 78 1
3 79 1
3 81 1
3 82 1
3 83 1
3 84 -1
3 94 -1
3 95 -1
4 5 -1
4 6 1
4 7 -1
4 10 -1
4 12 1
4 16 1
4 20 -1
4 25 1
4 33 -1
4 34 -1
4 40 1
4 42 -1
4 44 1
4 46 -1
4 52 -1
4 53 -1
4 56 -1
4 58 -1
4 59 1
4 71 1
4 72 1
4 75 -1
4 82 1
4 85 -1
4 90 -1
4 99 1
4 100 1
5 10 1
5 11 1
5 13 1
5 19 1
5 23 -1
5 28 1
5 30 1
5 32 -1
5 35 -1
5 54 -1
5 56 -1
5 57 -1
5 59 -1
5 61 1
5 62 1
5 65 -1
5 68 1
5 79 -1
5 85 1
5 87 1
5 88 -1
5 91 -1
5 100 1
6 8 1
6 9 -1
6 13 -1
6 14 1
6 19 -1
6 22 1
6 23 1
6 24 1
6 26 -1
6 35 1
6 42 -1
6 44 -1
6 45 -1
6 49 1
6 52 1
6 54 1
6 57 1
6 61 1
6 62 -1
6 65 -1
6 66 -1
6 67 1
6 72 1
6 81 -1
6 84 1
6 85 -1
6 91 -1
6 98 1
6 99 1
6 100 -1
7 11 -1
7 12 -1
7 13 -1
7 14 -1
7 17 1
7 26 1
7 30 -1
7 35 1
7 36 1
7 44 1
7 45 1
7 46 1
7 77 1
7 82 1
7 97 -1
7 99 -1
8 16 -1
8 19 1
8 22 -1
8 26 -1
8 27 -1
8 31 1
8 36 1
8 37 -1
8 48 1
8 51 1
8 62 1
8 63 -1
8 65 1
8 67 -1
8 68 1
8 69 -1
8 71 1
8 79 -1
8 80 -1
8 84 1
8 92 1
9 11 1
9 17 -1
9 22 -1
9 26 -1
9 27 1
9 30 -1
9 34 -1
9 45 1
9 49 -1
9 50 -1
9 52 1
9 55 -1
9 67 -1
9 75 -1
9 77 -1
9 78 -1
9 79 1
9 91 1
9 93 -1
9 95 -1
9 99 1
10 14 -1
10 25 1
10 26 1
10 28 -1
10 31 1
10 35 -1
10 36 -1
10 37 -1
10 43 1
10 49 1
10 52 1
10 59 -1
10 65 -1
10 66 -1
10 67 1
10 72 1
10 74 -1
10 77 -1
10 82 1
10 84 -1
10 98 -1
10 99 1
11 14 1
11 32 1
11 33 1
11 35 1
11 36 -1
11 39 -1
11 45 -1
11 48 1
11 50 1
11 54 1
11 60 1
11 62 1
11 67 1
11 71 -1
11 73 -1
11 79 -1
11 84 -1
11 87 -1
11 88 1
11 94 1
11 95 -1
11 97 -1
12 16 1
12 18 1
12 32 -1
12 35 -1
12 42 -1
12 43 1
12 47 1
12 58 1
12 67 1
12 68 -1
12 77 -1
12 85 -1
12 92 -1
12 94 -1
12 95 -1
12 99 -1
13 17 1
13 19 1
13 27 -1
13 32 -1
13 34 1
13 38 -1
13 40 -1
13 43 1
13 48 -1
13 54 -1
13 56 -1
13 70 1
13 76 1
13 86 1
13 91 1
13 94 1
14 20 -1
14 27 -1
14 31 -1
14 33 1
14 38 -1
14 40 1
14 41 -1
14 47 -1
14 49 1
14 57 1
14 62 1
14 64 1
14 67 1
14 68 -1
14 81 1
14 83 -1
14 84 -1
14 86 1
14 87 -1
14 90 1
14 92 -1
14 99 1
15 17 -1
15 24 1
15 27 1
15 28 1
15 34 1
15 36 1
15 37 1
15 38 -1
15 39 1
15 42 -1
15 44 1
15 46 -1
15 47 1
15 50 -1
15 52 1
15 61 1
15 62 1
15 69 1
15 80 1
15 84 -1
15 85 -1
15 89 1
15 92 1
16 25 -1
16 26 -1
16 30 -1
16 39 1
16 45 1
16 46 -1
16 48 1
16 65 1
16 74 1
16 79 1
16 80 -1
16 83 -1
16 84 -1
16 85 -1
16 94 1
17 18 1
17 20 1
17 24 1
17 25 1
17 30 1
17 31 1
17 33 1
17 38 1
17 47 1
17 51 -1
17 52 1
17 54 1
17 55 -1
17 60 -1
17 72 -1
17 76 -1
17 77 -1
17 84 -1
17 86 1
17 90 1
17 98 1
18 23 -1
18 27 1
18 36 -1
18 38 1
18 46 1
18 51 1
18 53 -1
18 60 -1
18 62 1
18 64 1
18 67 -1
18 68 -1
18 69 1
18 71 -1
18 77 -1
18 80 -1
18 84 -1
18 86 1
18 90 -1
19 21 1
19 38 1
19 40 1
19 42 1
19 44 1
19 49 1
19 50 1
19 52 -1
19 54 -1
19 56 1
19 57 -1
19 62 1
19 63 1
19 74 -1
19 78 -1
19 79 -1
19 80 -1
19 81 1
19 83 -1
19 87 -1
19 90 1
19 96 1
20 23 1
20 25 1
20 29 1
20 31 -1
20 33 1
20 35 1
20 36 -1
20 43 -1
20 46 -1
20 47 1
20 51 1
20 60 -1
20 63 -1
20 68 -1
20 70 -1
20 73 1
20 76 -1
20 82 1
20 86 1
20 87 1
20 88 -1
20 89 -1
20 94 -1
20 100 1
21 22 1
21 24 1
21 29 -1
21 31 1
21 33 -1
21 37 1
21 41 -1
21 42 1
21 45 -1
21 49 1
21 54 1
21 60 -1
21 62 -1
21 68 -1
21 75 -1
21 77 1
21 83 1
21 86 -1
22 31 -1
22 32 1
22 34 1
22 37 1
22 38 -1
22 41 1
22 48 1
22 49 -1
22 56 1
22 58 -1
22 62 1
22 64 -1
22 67 -1
22 68 -1
22 70 1
22 74 -1
22 77 -1
22 90 1
22 100 1
23 25 -1
23 28 1
23 46 1
23 48 -1
23 64 1
23 76 1
23 81 1
23 86 1
23 89 -1
23 91 -1
23 92 1
23 97 -1
23 99 1
24 27 1
24 32 -1
24 39 -1
24 43 -1
24 49 1
24 52 -1
24 53 1
24 55 1
24 64 -1
24 65 -1
24 69 1
24 70 -1
24 87 1
24 89 1
24 90 -1
24 99 1
25 26 -1
25 31 1
25 32 1
25 38 -1
25 40 1
25 43 -1
25 45 -1
25 49 -1
25 50 1
25 55 -1
25 59 -1
25 60 1
25 67 -1
25 69 1
25 70 -1
25 78 -1
25 81 -1
25 94 -1
25 96 1
25 99 -1
26 27 -1
26 28 1
26 29 -1
26 31 -1
26 36 -1
26 38 1
26 42 -1
26 43 1
26 44 1
26 45 -1
26 49 -1
26 52 -1
26 56 1
26 57 -1
26 58 -1
26 59 -1
26 62 -1
26 64 -1
26 77 1
26 84 1
26 86 -1
26 91 -1
26 93 1
26 95 -1
26 96 -1
26 99 -1
27 30 -1
27 35 -1
27 38 1
27 42 1
27 52 1
27 53 1
27 54 -1
27 57 1
27 58 -1
27 67 -1
27 75 1
27 78 1
27 80 1
27 87 1
27 92 -1
27 93 1
27 96 1
27 100 1
28 30 1
28 31 -1
28 34 -1
28 39 -1
28 50 1
28 61 1
28 74 -1
28 82 1
28 85 1
28 91 -1
28 94 1
28 98 1
29 32 1
29 34 -1
29 37 1
29 38 -1
29 42 1
29 56 1
29 59 -1
29 62 -1
29 64 -1
29 65 -1
29 69 1
29 71 -1
29 72 1
29 76 -1
29 78 1
29 80 1
29 88 -1
29 96 1
29 98 1
29 99 1
29 100 -1
30 33 1
30 41 1
30 48 -1
30 54 -1
30 55 1
30 57 -1
30 62 -1
30 65 1
30 69 -1
30 71 1
30 74 1
30 75 1
30 80 -1
30 85 1
30 86 -1
30 88 -1
30 92 1
30 93 -1
30 96 -1
31 34 -1
31 35 -1
31 36 1
31 37 1
31 39 -1
31 44 1
31 46 1
31 47 1
31 49 1
31 51 -1
31 54 -1
31 55 1
31 67 1
31 80 -1
31 83 -1
31 84 -1
31 85 -1
31 88 1
31 89 1
31 93 -1
31 94 1
31 99 -1
32 38 -1
32 40 1
32 44 -1
32 45 1
32 47 -1
32 48 1
32 49 1
32 51 -1
32 55 -1
32 57 -1
32 63 1
32 64 1
32 67 -1
32 70 1
32 71 1
32 77 -1
32 78 -1
32 79 1
32 80 -1
32 83 1
32 84 -1
32 87 1
32 91 1
32 92 -1
32 93 1
32 96 1
33 41 -1
33 42 -1
33 49 1
33 52 -1
33 72 1
33 79 1
33 80 1
33 87 1
33 91 -1
33 96 1
33 97 -1
33 100 1
34 36 1
34 47 1
34 49 -1
34 51 1
34 60 1
34 65 1
34 71 -1
34 72 1
34 73 -1
34 74 1
34 77 -1
34 80 -1
34 81 1
34 85 1
34 87 -1
34 98 -1
34 99 -1
35 41 -1
35 44 -1
35 51 1
35 52 -1
35 59 1
35 62 -1
35 65 1
35 66 -1
35 72 -1
35 75 -1
35 79 1
35 80 1
35 81 -1
35 82 1
35 85 1
35 94 -1
35 97 1
36 42 -1
36 45 1
36 54 1
36 57 -1
36 60 1
36 61 -1
36 62 -1
36 68 -1
36 70 -1
36 72 1
36 74 1
36 79 1
36 80 -1
36 88 1
36 96 -1
36 99 -1
37 47 1
37 55 -1
37 61 1
37 64 -1
37 68 1
37 70 1
37 73 1
37 80 1
37 85 1
37 88 1
37 91 1
37 100 -1
38 48 1
38 51 1
38 53 1
38 58 -1
38 60 -1
38 65 -1
38 69 1
38 75 -1
38 81 1
38 89 1
38 90 1
38 97 1
39 42 -1
39 49 -1
39 50 -1
39 52 1
39 54 -1
39 60 -1
39 63 1
39 64 -1
39 66 -1
39 69 -1
39 71 -1
39 75 1
39 77 -1
39 84 -1
39 95 -1
39 97 -1
39 98 -1
40 49 -1
40 50 -1
40 56 -1
40 57 1
40 63 -1
40 64 -1
40 75 1
40 78 -1
40 80 -1
40 88 -1
40 94 -1
41 48 -1
41 49 -1
41 55 1
41 59 1
41 60 1
41 64 1
41 67 -1
41 72 1
41 73 1
41 77 -1
41 87 1
41 89 -1
41 94 1
41 96 -1
41 100 1
42 44 1
42 48 -1
42 54 -1
42 55 1
42 56 1
42 64 -1
42 69 -1
42 71 -1
42 72 -1
42 78 1
42 82 -1
42 89 -1
42 94 1
42 96 1
42 98 1
43 52 1
43 53 -1
43 54 1
43 56 1
43 57 -1
43 59 -1
43 61 1
43 68 -1
43 69 -1
43 70 1
43 74 -1
43 75 1
43 76 1
43 78 1
43 81 -1
43 85 -1
43 91 -1
43 93 -1
44 45 1
44 49 -1
44 53 1
44 58 -1
44 67 1
44 71 -1
44 79 1
44 85 1
44 86 -1
44 88 -1
44 89 1
44 92 1
44 97 -1
44 100 -1
45 47 1
45 49 1
45 52 -1
45 72 -1
45 79 1
45 86 -1
45 88 -1
45 97 -1
45 100 -1
46 49 -1
46 52 -1
46 53 1
46 56 1
46 58 1
46 59 -1
46 62 1
46 67 -1
46 68 1
46 69 -1
46 70 1
46 75 -1
46 85 1
46 88 1
46 89 1
46 90 1
46 92 1
47 58 -1
47 61 -1
47 65 -1
47 67 1
47 71 1
47 77 1
47 80 -1
47 84 1
47 92 -1
47 96 1
47 100 1
48 56 -1
48 58 1
48 62 1
48 67 1
48 72 -1
48 75 1
48 78 1
48 79 -1
48 87 1
48 90 1
48 100 -1
49 50 -1
49 53 1
49 55 1
49 56 -1
49 70 -1
49 74 -1
49 77 1
49 84 1
49 88 1
49 97 -1
50 52 1
50 55 1
50 56 -1
50 64 -1
50 65 1
50 66 1
50 70 1
50 75 1
50 78 -1
50 79 -1
50 82 -1
50 84 1
50 86 -1
50 89 1
50 92 -1
50 96 -1
50 97 1
50 100 1
51 57 -1
51 60 1
51 62 -1
51 64 1
51 67 -1
51 69 -1
51 71 1
51 77 -1
51 82 -1
51 90 -1
51 96 1
51 99 -1
52 55 1
52 57 -1
52 62 1
52 64 1
52 66 -1
52 74 -1
52 85 1
52 87 -1
52 89 1
53 61 -1
53 62 -1
53 68 -1
53 71 -1
53 82 1
53 86 1
53 93 -1
54 60 1
54 63 1
54 64 1
54 77 1
54 78 -1
54 81 -1
54 86 -1
54 89 1
54 92 -1
54 96 1
55 67 -1
55 71 -1
55 75 1
55 84 1
55 89 1
55 93 1
55 94 1
55 96 -1
55 97 1
55 99 -1
55 100 1
56 63 -1
56 76 1
56 79 1
56 81 1
56 85 1
56 91 -1
56 94 -1
56 97 1
57 63 -1
57 70 1
57 71 -1
57 75 1
57 77 -1
57 80 1
57 85 1
57 87 -1
57 96 -1
57 100 -1
58 61 -1
58 65 1
58 67 1
58 69 1
58 73 -1
58 81 -1
58 82 1
58 87 -1
58 94 1
58 95 -1
58 96 1
58 99 -1
59 69 1
59 70 1
59 74 1
59 81 1
59 84 1
59 90 1
59 92 -1
59 99 -1
59 100 -1
60 69 1
60 72 -1
60 78 -1
60 82 1
60 85 -1
60 95 1
60 97 1
61 63 -1
61 64 -1
61 66 1
61 67 1
61 70 -1
61 72 -1
61 74 1
61 81 -1
61 83 1
61 88 1
61 93 1
61 96 -1
62 71 -1
62 92 1
62 95 -1
62 99 -1
63 64 1
63 71 1
63 73 -1
63 76 -1
63 81 1
63 90 -1
63 93 -1
63 95 -1
64 67 1
64 68 1
64 83 1
64 86 1
64 89 1
64 95 -1
65 70 -1
65 72 -1
65 74 -1
65 79 -1
65 81 1
65 82 1
65 83 -1
65 88 1
65 94 1
66 73 1
66 90 -1
66 92 -1
66 94 -1
66 96 1
66 100 1
67 69 1
67 79 1
67 84 1
67 89 -1
67 92 -1
67 95 1
67 96 1
67 97 1
67 98 -1
67 99 -1
67 100 1
68 71 -1
68 74 1
68 82 -1
68 86 1
69 74 -1
69 76 -1
69 78 1
69 98 -1
70 71 1
70 72 1
70 75 -1
70 82 -1
70 91 1
70 93 1
70 94 1
70 96 -1
70 98 -1
71 78 -1
71 80 1
71 81 -1
71 83 1
71 85 1
71 90 1
71 92 1
71 94 1
71 96 1
71 97 -1
72 78 -1
72 81 -1
72 82 1
72 89 -1
72 93 -1
72 94 -1
73 78 1
73 80 1
73 81 1
73 84 -1
73 85 1
73 88 1
73 90 1
73 92 1
73 93 1
73 100 1
74 92 -1
74 94 1
74 96 -1
75 84 1
75 89 1
75 95 -1
76 77 1
76 87 -1
77 85 -1
77 96 -1
77 98 -1
78 82 1
78 88 1
78 93 -1
78 95 -1
78 97 -1
79 84 1
79 88 -1
79 89 1
79 90 -1
79 92 1
79 94 -1
80 84 1
80 87 1
80 88 -1
80 94 1
80 95 1
80 97 -1
81 83 1
81 85 1
81 92 1
81 96 -1
81 97 1
82 89 -1
82 90 1
82 96 -1
83 88 -1
83 89 1
83 92 -1
84 86 1
84 95 1
84 96 1
85 86 1
85 98 -1
85 100 1
86 87 1
86 90 1
86 94 1
87 90 1
87 94 -1
87 97 1
88 90 1
88 94 1
88 95 -1
89 91 -1
89 92 -1
89 94 -1
89 95 -1
90 95 1
90 97 -1
90 100 1
91 94 1
91 95 1
91 98 -1
92 94 1
93 95 1
93 97 -1
93 100 -1
94 96 1
95 96 1
95 97 -1
97 99 1
